Features/ForMiniZinc/benchmark_puzzles/benchmarks7x7/60/puzzle16.dzn
S = 7;
start = [|0,41,0,0,17,0,4,0,0,0,12,28,47,0,0,0,0,0,0,38,0,0,45,6,9,0,1,0,0,0,0,0,0,40,14,11,0,39,0,0,2,0,0,0,20,37,30,0,0|
0,0,0,19,31,46,20,0,26,0,41,0,0,0,0,0,0,0,47,24,0,0,0,5,0,0,0,0,0,0,0,0,42,0,0,3,0,0,0,0,0,12,0,16,29,0,0,49,23|
48,0,0,0,0,15,0,0,0,25,0,37,19,27,0,0,0,0,1,14,0,21,0,10,0,0,30,44,0,0,0,0,22,0,0,0,0,0,0,4,46,0,17,7,0,0,6,43,0|
3,0,6,0,23,10,26,31,0,0,0,18,35,9,34,0,0,12,44,0,0,0,14,8,0,0,0,0,0,0,0,0,0,49,0,0,22,0,0,0,37,0,0,0,0,33,2,0,4|
0,0,25,0,40,1,0,0,2,0,0,43,0,0,0,21,0,37,28,0,6,23,0,0,29,0,0,42,0,0,0,16,0,0,34,0,0,0,0,0,0,26,0,0,0,0,0,0,0|
5,21,0,44,43,28,0,0,0,1,0,14,0,0,0,30,0,0,46,0,26,0,0,7,0,12,0,0,0,39,4,0,6,0,2,18,0,0,0,0,34,40,38,0,0,0,0,0,0|
0,0,0,0,33,0,0,42,0,17,29,0,39,0,0,0,9,0,0,27,0,0,25,0,0,0,0,0,0,0,26,0,0,0,3,0,0,47,0,0,0,0,32,0,0,0,0,44,0|
37,24,0,0,10,2,3,30,1,0,0,0,4,42,47,0,0,0,0,0,0,17,8,0,20,0,0,19,0,0,0,0,0,44,0,23,0,0,45,0,0,46,9,0,49,0,0,5,48|
0,0,0,0,26,0,25,16,49,18,0,0,0,0,0,1,21,0,0,0,45,0,0,38,0,0,0,32,30,0,0,0,4,0,0,0,2,0,0,9,0,33,19,0,0,0,39,0,0|
0,0,0,38,0,0,13,24,32,0,0,0,5,0,28,0,36,0,0,0,20,0,0,0,0,0,0,0,0,9,39,0,2,46,0,0,0,0,0,37,21,10,42,47,0,35,0,0,0|
0,0,39,0,47,0,11,0,0,14,10,0,0,0,0,0,0,0,0,0,19,0,0,0,0,9,45,23,0,0,0,20,0,34,0,0,32,3,0,0,42,0,7,0,0,15,0,22,0|
20,0,12,0,42,0,0,26,0,0,28,0,0,0,0,0,13,17,0,0,0,6,0,0,0,0,34,0,0,25,0,0,0,0,0,36,0,0,0,16,30,0,40,0,31,0,0,0,2|
6,0,0,0,0,0,0,44,0,0,36,48,25,12,0,0,0,7,8,0,0,0,0,0,11,0,0,0,3,0,0,0,0,0,13,43,26,18,27,0,0,0,0,0,0,0,0,0,30|
4,40,0,0,0,0,34,0,23,0,0,0,0,0,33,0,0,0,0,0,0,36,28,49,18,46,0,0,0,42,0,24,43,0,48,15,11,12,0,0,25,0,0,0,45,0,3,0,29|
0,25,0,40,0,21,37,0,13,39,0,1,15,24,0,45,27,0,10,0,0,31,0,47,0,0,38,30,35,0,0,0,48,0,4,0,0,17,0,0,0,0,5,0,0,0,0,46,0|
8,0,3,41,19,0,0,0,0,0,0,0,0,0,0,0,0,0,0,20,0,13,0,0,0,0,17,18,23,32,0,10,0,24,28,12,0,0,15,0,0,47,49,45,4,0,29,0,0|
0,48,0,42,0,0,0,0,35,43,0,0,16,0,11,46,32,0,2,22,0,0,0,0,0,6,0,0,0,0,7,0,0,0,0,0,0,0,18,0,0,0,31,0,0,0,0,21,40|
0,16,0,0,32,0,0,0,19,0,9,4,0,0,0,0,0,0,26,8,36,39,0,40,0,27,37,29,14,5,33,22,15,25,0,0,0,0,3,0,20,44,0,0,0,0,0,7,0|
0,14,0,39,0,6,0,22,17,12,21,45,0,0,0,0,30,0,29,0,0,15,0,43,0,0,0,0,46,0,0,8,40,0,18,0,0,25,0,0,16,24,0,0,0,27,41,0,37|
36,38,17,15,27,4,24,0,29,2,3,0,0,48,25,28,0,0,0,0,0,0,0,0,22,1,26,0,20,0,0,0,11,16,0,0,0,0,41,0,0,0,0,0,0,0,0,9,0|
0,0,11,7,0,30,0,0,18,23,0,20,34,47,0,6,12,24,0,49,0,0,0,0,45,0,0,0,0,27,9,43,17,41,38,0,14,0,4,0,0,8,25,0,0,0,36,0,0|
0,0,4,0,0,37,0,1,0,11,0,25,20,0,18,0,0,0,48,21,49,0,39,42,0,0,0,17,0,0,31,0,32,6,0,0,24,28,46,33,23,0,13,0,0,0,45,0,9|
26,0,0,31,0,0,0,0,0,46,0,0,27,0,5,0,45,30,0,42,47,0,0,1,13,41,0,0,40,2,28,0,0,0,0,0,0,16,0,0,0,15,0,0,0,21,23,36,33|
0,11,7,0,0,0,6,0,12,49,18,0,23,0,0,9,3,4,0,0,0,45,0,24,21,0,5,38,0,33,0,0,0,0,35,0,17,8,34,0,1,0,15,0,41,0,0,20,0|
13,0,0,0,0,27,0,48,3,16,0,0,0,17,40,0,0,0,0,0,25,0,23,0,0,0,0,6,0,10,11,0,0,1,0,0,7,41,0,0,0,0,26,35,0,0,0,0,0|
15,34,0,0,21,44,0,39,24,0,0,47,45,0,0,10,0,0,0,43,35,2,0,0,49,0,0,0,0,36,38,0,30,0,0,0,42,31,0,19,0,9,0,22,0,0,32,0,0|
0,0,23,0,0,0,38,0,31,0,44,8,0,0,0,29,0,32,0,0,0,0,0,35,37,0,0,0,0,0,0,0,0,0,0,10,47,0,0,0,14,0,24,0,0,0,34,42,0|
0,0,0,0,0,0,0,0,36,0,0,0,28,0,0,0,11,0,19,0,0,0,0,0,0,0,0,0,21,0,46,0,0,0,0,4,43,44,6,0,0,0,0,49,0,0,37,0,0|
0,0,33,0,28,36,0,43,0,0,7,9,14,6,3,0,0,13,0,0,31,0,0,2,0,44,0,0,10,0,0,0,0,0,15,34,0,0,0,0,0,0,0,0,0,0,0,0,0|
0,20,38,0,48,40,0,10,37,0,4,0,24,0,0,49,22,0,0,0,33,0,0,0,28,0,0,0,0,3,0,2,0,14,27,0,0,0,0,0,0,39,36,0,46,0,0,6,0|
0,0,2,1,0,26,23,20,0,30,34,12,49,11,0,14,0,0,0,0,0,4,15,0,0,0,0,0,0,22,0,36,0,0,19,0,0,0,0,0,0,0,0,33,10,0,5,0,45|
0,31,0,13,5,35,0,18,38,40,0,0,0,16,26,23,0,0,45,10,0,0,0,37,0,49,32,0,34,0,0,42,0,4,11,1,0,0,0,0,6,28,8,0,27,0,12,0,0|
42,0,0,34,0,0,0,0,0,0,22,0,21,5,0,0,0,0,16,30,15,0,0,41,17,8,0,0,1,0,25,0,28,0,0,32,0,0,12,0,10,2,48,20,0,0,0,31,43|
0,7,16,0,0,0,39,46,45,0,0,0,0,19,32,0,0,28,0,0,0,0,0,0,0,48,25,0,0,18,0,0,0,30,0,0,0,0,0,11,41,0,2,17,15,49,13,0,0|
19,37,27,0,0,0,0,0,25,32,0,0,1,0,8,0,42,0,0,0,38,0,34,22,0,0,18,36,0,48,0,13,0,0,0,0,0,0,0,0,0,23,4,0,0,0,35,0,16|
0,0,0,0,0,0,48,23,10,0,0,29,37,0,0,20,0,42,0,9,0,0,0,0,27,0,0,0,32,0,0,0,0,0,21,0,8,0,0,0,28,0,0,0,0,0,0,15,0|
0,0,26,0,0,42,0,47,0,0,0,36,0,4,45,3,0,0,11,28,13,0,0,0,0,35,2,20,33,0,0,0,25,23,0,0,44,0,24,0,49,0,0,0,0,0,0,0,0|
0,0,0,0,0,0,0,0,0,0,0,0,22,0,0,0,29,0,0,0,0,0,0,45,0,19,33,0,44,0,49,0,0,0,0,0,21,15,0,46,0,11,0,5,1,40,0,32,0|
34,2,30,0,0,0,49,14,0,0,17,21,0,15,0,0,18,0,0,16,7,22,13,0,0,23,0,25,0,0,0,4,10,9,0,0,0,0,0,40,0,37,28,0,8,0,26,45,36|
16,0,0,17,0,38,0,0,6,0,0,19,0,0,36,0,0,0,22,0,0,42,37,0,0,0,46,21,0,0,0,0,39,5,20,33,0,0,0,0,0,0,0,0,0,0,0,12,0|
0,0,40,5,0,19,0,0,0,3,20,38,0,18,0,33,4,0,0,31,0,0,43,26,6,0,0,0,16,0,36,15,47,0,46,30,0,9,0,0,7,0,0,0,22,0,21,2,25|
0,0,0,22,0,18,1,25,0,34,0,0,13,0,35,0,38,21,0,41,0,0,0,0,48,0,0,0,0,31,45,30,0,0,0,47,20,0,0,3,0,0,0,23,0,4,46,0,0|
27,0,0,0,2,11,0,0,21,0,46,24,0,0,0,0,20,0,0,0,29,0,0,15,0,45,0,0,22,0,23,33,0,0,0,0,0,0,0,0,3,0,14,0,6,48,0,4,0|
35,10,18,48,36,0,0,3,0,0,0,17,0,0,0,19,24,0,25,0,34,49,0,4,0,0,14,0,0,0,2,0,0,0,0,7,45,23,16,0,0,0,43,0,0,42,0,0,0|
43,0,8,0,0,25,0,0,22,0,0,0,0,0,0,0,26,6,0,0,48,0,0,23,0,42,0,0,49,4,0,27,0,0,0,0,0,0,0,10,17,0,34,28,21,36,0,11,44|
12,0,0,33,44,0,28,7,9,10,0,15,0,0,43,0,0,0,0,37,0,0,0,21,0,0,27,0,36,0,0,0,0,0,0,0,0,0,40,0,0,0,22,0,0,0,8,29,20|
0,15,0,37,0,0,0,0,4,0,0,0,0,0,0,17,44,3,42,0,0,11,0,12,19,0,0,0,0,0,0,46,45,0,0,48,5,0,0,0,26,0,0,27,13,0,33,23,31|
0,13,49,0,34,0,0,0,43,0,14,27,2,0,4,0,8,0,38,0,1,0,44,30,26,33,48,31,0,0,0,0,41,0,25,28,9,36,0,29,0,35,0,0,5,0,0,16,32|
0,5,0,0,6,0,0,13,44,31,0,0,0,0,0,12,0,0,36,0,0,0,20,34,35,17,29,3,0,47,0,0,0,28,43,0,0,42,0,0,4,49,0,0,0,30,0,0,7|];